<instance format="XCSP3" type="CSP">
  <variables>
    <var id="x0"> 5 11 17 </var>
    <var id="x1"> 1 4 5 </var>
    <var id="x2"> 2 4 14 </var>
    <var id="x3"> 1 5 12 14 </var>
    <var id="x4"> 1 4 11 12 </var>
    <var id="x5"> 5 12 </var>
    <var id="x6"> 1 4 11 17 </var>
    <var id="x7"> 1 2 5 11 </var>
    <var id="x8"> 2 8 11 16 </var>
    <var id="x9"> 0 8 10 11 16 17 </var>
    <var id="x10"> 2 8 9 17 </var>
    <var id="x11"> 0 9 11 17 </var>
    <var id="x12"> 0 9 16 </var>
    <var id="x13"> 0 10 16 </var>
    <var id="x14"> 0 11 16 17 </var>
    <var id="x15"> 2 8 11 17 </var>
    <var id="x16"> 1 8 15 </var>
    <var id="x17"> 4 9 10 15 17 </var>
    <var id="x18"> 4 8 9 </var>
    <var id="x19"> 4 8 10 15 </var>
    <var id="x20"> 4 9 15 17 </var>
    <var id="x21"> 1 9 17 </var>
    <var id="x22"> 1 8 15 17 </var>
    <var id="x23"> 0 8 </var>
    <var id="x24"> 14 </var>
    <var id="x25"> 0 3 4 9 </var>
    <var id="x26"> 0 2 8 </var>
    <var id="x27"> 0 3 7 </var>
    <var id="x28"> 0 2 4 7 9 </var>
    <var id="x29"> 2 3 7 8 </var>
    <var id="x30"> 2 3 8 9 </var>
    <var id="x31"> 12 15 17 </var>
    <var id="x32"> 8 13 </var>
    <var id="x33"> 8 17 </var>
    <var id="x34"> 11 13 15 17 </var>
    <var id="x35"> 1 12 </var>
    <var id="x36"> 12 17 </var>
    <var id="x37"> 1 11 12 17 </var>
    <var id="x38"> 1 5 8 11 </var>
    <var id="x39"> 1 6 11 </var>
    <var id="x40"> 4 12 </var>
    <var id="x41"> 4 7 13 </var>
    <var id="x42"> 1 6 12 13 </var>
    <var id="x43"> 6 7 </var>
    <var id="x44"> 0 1 4 11 12 </var>
    <var id="x45"> 0 4 11 13 </var>
    <var id="x46"> 1 6 11 </var>
    <var id="x47"> 3 16 </var>
    <var id="x48"> 2 3 7 14 </var>
    <var id="x49"> 0 10 11 </var>
    <var id="x50"> 0 2 10 11 16 </var>
    <var id="x51"> 0 3 7 10 16 </var>
    <var id="x52"> 0 11 16 </var>
    <var id="x53"> 0 7 11 16 </var>
    <var id="x54"> 2 3 7 11 </var>
    <var id="x55"> 10 11 16 </var>
    <var id="x56"> 1 12 15 </var>
    <var id="x57"> 3 4 10 15 </var>
    <var id="x58"> 3 </var>
    <var id="x59"> 1 4 10..12 </var>
    <var id="x60"> 3 4 11 15 </var>
    <var id="x61"> 1 3 4 12 16 </var>
    <var id="x62"> 10 11 16 </var>
    <var id="x63"> 2 5 6 11 16 </var>
    <var id="x64"> 2 9 16 </var>
    <var id="x65"> 3 5 16 </var>
    <var id="x66"> 2 3 9 </var>
    <var id="x67"> 5 6 </var>
    <var id="x68"> 0 3 5 16 </var>
    <var id="x69"> 0 9 11 16 </var>
    <var id="x70"> 0 11 16 </var>
    <var id="x71"> 0 5 6 8 17 </var>
    <var id="x72"> 0 1 8 </var>
    <var id="x73"> 0 13 15 17 </var>
    <var id="x74"> 0 6 8 17 </var>
    <var id="x75"> 0 5 </var>
    <var id="x76"> 0 1 17 </var>
    <var id="x77"> 1 8 15 17 </var>
    <var id="x78"> 1 5 6 8 </var>
    <var id="x79"> 2 10 12 15 </var>
    <var id="x80"> 2 3 8 </var>
    <var id="x81"> 2 3 6 8 10 15 </var>
    <var id="x82"> 3 15 </var>
    <var id="x83"> 3 6 12 </var>
    <var id="x84"> 2 10 12 </var>
    <var id="x85"> 15 </var>
    <var id="x86"> 6 10 </var>
    <var id="x87"> 1 3 4 15 </var>
    <var id="x88"> 1 6 12 15 </var>
    <var id="x89"> 3 4 6 10 15 </var>
    <var id="x90"> 3 4 15 </var>
    <var id="x91"> 6 10 </var>
    <var id="x92"> 4 7 10 12 </var>
    <var id="x93"> 1 4 7 15 </var>
    <var id="x94"> 1 2 8 15 16 </var>
    <var id="x95"> 2..4 8 </var>
    <var id="x96"> 1 15 </var>
    <var id="x97"> 2..4 8 15 </var>
    <var id="x98"> 1 3 4 16 </var>
    <var id="x99"> 2 8 16 17 </var>
    <var id="x100"> 2 4 17 </var>
    <var id="x101"> 1..3 8 15 17 </var>
    <var id="x102"> 2 5 6 16 </var>
    <var id="x103"> 2 4 9 10 16 </var>
    <var id="x104"> 4 5 16 </var>
    <var id="x105"> 2 4..6 10 </var>
    <var id="x106"> 2 6 9 </var>
    <var id="x107"> 0 2 6 10 16 </var>
    <var id="x108"> 0 5 10 16 </var>
    <var id="x109"> 0 2 4 9 10 </var>
    <var id="x110"> 5 6 15 16 </var>
    <var id="x111"> 9 15..17 </var>
    <var id="x112"> 5 15 16 </var>
    <var id="x113"> 5 6 15 </var>
    <var id="x114"> 0 9 </var>
    <var id="x115"> 0 7 15..17 </var>
    <var id="x116"> 7 15 17 </var>
    <var id="x117"> 5 6 9 </var>
    <var id="x118"> 2 4 9 16 17 </var>
    <var id="x119"> 2..4 8 9 </var>
    <var id="x120"> 2..4 8 </var>
    <var id="x121"> 4 8 9 11 </var>
    <var id="x122"> 3 4 9 16 </var>
    <var id="x123"> 2 8 11 16 17 </var>
    <var id="x124"> 2 4 9 17 </var>
    <var id="x125"> 2 3 8 11 17 </var>
    <var id="x126"> 0 5 8 </var>
    <var id="x127"> 1 3 5 8 13 </var>
    <var id="x128"> 3 7..9 </var>
    <var id="x129"> 0 1 8 9 </var>
    <var id="x130"> 0 1 3 9 </var>
    <var id="x131"> 0 1 9 </var>
    <var id="x132"> 0 1 7 </var>
    <var id="x133"> 1 3 5 8 9 </var>
    <var id="x134"> 6 8 11 16 </var>
    <var id="x135"> 6 8 11 16 17 </var>
    <var id="x136"> 8 16 </var>
    <var id="x137"> 6 8 9 17 </var>
    <var id="x138"> 9 12 17 </var>
    <var id="x139"> 9 11 12 16 17 </var>
    <var id="x140"> 6 8 9 11 </var>
  </variables>
  <constraints>
    <group>
      <allDifferent> %... </allDifferent>
      <args> x0 x1 x2 x3 x4 x5 x6 x7 </args>
      <args> x8 x9 x10 x11 x12 x13 x14 x15 </args>
      <args> x16 x17 x18 x19 x20 x21 x22 </args>
      <args> x23 x24 x25 x26 x27 x28 x29 x30 </args>
      <args> x31 x32 x33 x34 x35 x36 x37 x38 </args>
      <args> x39 x40 x41 x42 x43 x44 x45 x46 </args>
      <args> x47 x48 x49 x50 x51 x52 x53 x54 </args>
      <args> x55 x56 x57 x58 x59 x60 x61 x62 </args>
      <args> x63 x64 x65 x66 x67 x68 x69 x70 </args>
      <args> x71 x72 x73 x74 x75 x76 x77 x78 </args>
      <args> x79 x80 x81 x82 x83 x84 x85 </args>
      <args> x86 x87 x88 x89 x90 x91 x92 x93 </args>
      <args> x94 x95 x96 x97 x98 x99 x100 x101 </args>
      <args> x102 x103 x104 x105 x106 x107 x108 x109 </args>
      <args> x110 x111 x112 x113 x114 x115 x116 x117 </args>
      <args> x118 x119 x120 x121 x122 x123 x124 x125 </args>
      <args> x126 x127 x128 x129 x130 x131 x132 x133 </args>
      <args> x134 x135 x136 x137 x138 x139 x140 </args>
      <args> x8 x16 x39 x63 x94 x102 x110 x134 </args>
      <args> x17 x31 x40 x64 x79 x103 x111 x118 </args>
      <args> x0 x9 x23 x55 x71 x86 x126 x135 </args>
      <args> x1 x47 x65 x87 x104 x112 x127 x136 </args>
      <args> x2 x18 x32 x41 x66 x80 x95 x119 </args>
      <args> x3 x24 x42 x56 x67 x88 x96 </args>
      <args> x19 x57 x81 x89 x97 x105 x113 x120 </args>
      <args> x10 x33 x43 x48 x58 x106 x128 x137 </args>
      <args> x4 x44 x49 x59 x72 x114 x121 x129 </args>
      <args> x11 x20 x34 x45 x60 x73 x82 x90 </args>
      <args> x12 x25 x35 x61 x83 x98 x122 x130 </args>
      <args> x26 x50 x62 x74 x91 x99 x107 x123 </args>
      <args> x5 x13 x27 x51 x68 x75 x108 </args>
      <args> x28 x36 x84 x92 x100 x109 x124 x138 </args>
      <args> x21 x37 x52 x69 x76 x131 x139 </args>
      <args> x6 x14 x53 x70 x85 x93 x115 x132 </args>
      <args> x15 x22 x29 x54 x77 x101 x116 x125 </args>
      <args> x7 x30 x38 x46 x78 x117 x133 x140 </args>
    </group>
  </constraints>
</instance>

